201,406
539,452
685,435
734,433
947,448
1028,583
998,842
755,634
769,527
729,371
576,261
488,140
463,248
765,322
741,406
681,736
635,702
681,676
681,706
644,643
921,284
945,42
1108,189
317,670
504,378
639,140
518,86
888,374
1093,705
168,240
